1461.35
0 20 8 12 2 1 15 13 9 14 4 11 3 5 6 10 7 0
0 47 29 36 32 35 22 19 17 23 26 28 25 24 30 31 33 27 34 16 21 18 0
0 51 50 39 38 48 49 46 44 41 37 42 45 43 40 52 79 0
0 60 63 58 55 57 61 65 62 66 64 59 54 53 56 67 88 0
0 69 70 77 78 72 75 80 73 76 68 74 71 83 81 82 0
0 100 98 99 101 85 84 89 90 93 94 97 91 92 95 106 96 87 86 0
0 114 118 108 109 115 110 116 103 107 104 113 117 112 111 102 105 120 119 0
